(set-logic QF_LRA)
(declare-fun parameter_unload_at_depot_pallet@1 () Real)
(declare-fun fluent_robot_at_r0_p0@0 () Bool)
(declare-fun fluent_robot_at_r0_p1@0 () Bool)
(declare-fun fluent_robot_at_r0_p2@0 () Bool)
(declare-fun fluent_robot_at_r0_p3@0 () Bool)
(declare-fun fluent_robot_free_r0@0 () Bool)
(declare-fun fluent_pallet_at_plt0_p0@0 () Bool)
(declare-fun fluent_pallet_at_plt0_p1@0 () Bool)
(declare-fun fluent_pallet_at_plt0_p2@0 () Bool)
(declare-fun fluent_pallet_at_plt0_p3@0 () Bool)
(declare-fun fluent_battery_level_r0@0 () Real)
(declare-fun dur_make_treatment@1 () Real)
(declare-fun t@1 () Real)
(declare-fun fluent_position_free_p0@0 () Bool)
(declare-fun fluent_position_free_p1@0 () Bool)
(declare-fun fluent_position_free_p2@0 () Bool)
(declare-fun fluent_position_free_p3@0 () Bool)
(declare-fun parameter_make_treatment_t@1 () Real)
(declare-fun parameter_make_treatment_r@1 () Real)
(declare-fun parameter_make_treatment_pallet@1 () Real)
(declare-fun parameter_make_treatment_pos@1 () Real)
(declare-fun fluent_robot_has_r0_plt0@0 () Bool)
(declare-fun fluent_ready_plt0_p0_t0@0 () Bool)
(declare-fun fluent_ready_plt0_p1_t0@0 () Bool)
(declare-fun fluent_ready_plt0_p2_t0@0 () Bool)
(declare-fun fluent_ready_plt0_p3_t0@0 () Bool)
(declare-fun fluent_treated_plt0_t0@0 () Bool)
(declare-fun act_move@1 () Bool)
(declare-fun parameter_move_topos@1 () Real)
(declare-fun parameter_move_frompos@1 () Real)
(declare-fun parameter_move_r@1 () Real)
(declare-fun act_make_treatment@1 () Bool)
(declare-fun fluent_robot_at_r0_p0@1 () Bool)
(declare-fun fluent_robot_at_r0_p1@1 () Bool)
(declare-fun fluent_robot_at_r0_p2@1 () Bool)
(declare-fun fluent_robot_at_r0_p3@1 () Bool)
(declare-fun fluent_battery_level_r0@1 () Real)
(declare-fun act_load@1 () Bool)
(declare-fun parameter_load_t@1 () Real)
(declare-fun parameter_load_pos@1 () Real)
(declare-fun parameter_load_pallet@1 () Real)
(declare-fun parameter_load_r@1 () Real)
(declare-fun fluent_robot_free_r0@1 () Bool)
(declare-fun fluent_ready_plt0_p0_t0@1 () Bool)
(declare-fun fluent_ready_plt0_p1_t0@1 () Bool)
(declare-fun fluent_ready_plt0_p2_t0@1 () Bool)
(declare-fun fluent_ready_plt0_p3_t0@1 () Bool)
(declare-fun fluent_pallet_at_plt0_p0@1 () Bool)
(declare-fun fluent_pallet_at_plt0_p1@1 () Bool)
(declare-fun fluent_pallet_at_plt0_p2@1 () Bool)
(declare-fun fluent_pallet_at_plt0_p3@1 () Bool)
(declare-fun fluent_robot_has_r0_plt0@1 () Bool)
(declare-fun fluent_treated_plt0_t0@1 () Bool)
(declare-fun fluent_position_free_p0@1 () Bool)
(declare-fun fluent_position_free_p1@1 () Bool)
(declare-fun fluent_position_free_p2@1 () Bool)
(declare-fun fluent_position_free_p3@1 () Bool)
(declare-fun act_load_at_depot@1 () Bool)
(declare-fun parameter_load_at_depot_pos@1 () Real)
(declare-fun parameter_load_at_depot_r@1 () Real)
(declare-fun parameter_load_at_depot_pallet@1 () Real)
(declare-fun act_unload_at_depot@1 () Bool)
(declare-fun parameter_unload_at_depot_pos@1 () Real)
(declare-fun parameter_unload_at_depot_r@1 () Real)
(assert (let ((.def_0 (= parameter_unload_at_depot_r@1 0.0))) (let ((.def_1 (= parameter_unload_at_depot_pos@1 4.0))) (let ((.def_2 (= parameter_unload_at_depot_pos@1 3.0))) (let ((.def_3 (= parameter_unload_at_depot_pos@1 2.0))) (let ((.def_4 (= parameter_unload_at_depot_pos@1 1.0))) (let ((.def_5 (or .def_4 .def_3 .def_2 .def_1))) (let ((.def_6 (= parameter_load_at_depot_pallet@1 5.0))) (let ((.def_7 (= parameter_load_at_depot_r@1 0.0))) (let ((.def_8 (= parameter_load_at_depot_pos@1 4.0))) (let ((.def_9 (= parameter_load_at_depot_pos@1 3.0))) (let ((.def_10 (= parameter_load_at_depot_pos@1 2.0))) (let ((.def_11 (= parameter_load_at_depot_pos@1 1.0))) (let ((.def_12 (or .def_11 .def_10 .def_9 .def_8))) (let ((.def_13 (= parameter_move_r@1 0.0))) (let ((.def_14 (= parameter_move_frompos@1 4.0))) (let ((.def_15 (= parameter_move_frompos@1 3.0))) (let ((.def_16 (= parameter_move_frompos@1 2.0))) (let ((.def_17 (= parameter_move_frompos@1 1.0))) (let ((.def_18 (or .def_17 .def_16 .def_15 .def_14))) (let ((.def_19 (= parameter_move_topos@1 4.0))) (let ((.def_20 (= parameter_move_topos@1 3.0))) (let ((.def_21 (= parameter_move_topos@1 2.0))) (let ((.def_22 (= parameter_move_topos@1 1.0))) (let ((.def_23 (or .def_22 .def_21 .def_20 .def_19))) (let ((.def_24 (= parameter_make_treatment_pos@1 4.0))) (let ((.def_25 (= parameter_make_treatment_pos@1 3.0))) (let ((.def_26 (= parameter_make_treatment_pos@1 2.0))) (let ((.def_27 (= parameter_make_treatment_pos@1 1.0))) (let ((.def_28 (or .def_27 .def_26 .def_25 .def_24))) (let ((.def_29 (= parameter_make_treatment_r@1 0.0))) (let ((.def_30 (= parameter_make_treatment_pallet@1 5.0))) (let ((.def_31 (= parameter_make_treatment_t@1 6.0))) (let ((.def_32 (= parameter_load_r@1 0.0))) (let ((.def_33 (= parameter_load_pallet@1 5.0))) (let ((.def_34 (= parameter_load_pos@1 4.0))) (let ((.def_35 (= parameter_load_pos@1 3.0))) (let ((.def_36 (= parameter_load_pos@1 2.0))) (let ((.def_37 (= parameter_load_pos@1 1.0))) (let ((.def_38 (or .def_37 .def_36 .def_35 .def_34))) (let ((.def_39 (= parameter_load_t@1 6.0))) (let ((.def_40 (= parameter_unload_at_depot_pallet@1 5.0))) (let ((.def_41 (<= fluent_battery_level_r0@1 100.0))) (let ((.def_42 (<= 0.0 fluent_battery_level_r0@1))) (let ((.def_43 (and act_move@1 true .def_13))) (let ((.def_44 (= fluent_battery_level_r0@0 fluent_battery_level_r0@1))) (let ((.def_45 (not .def_44))) (let ((.def_46 (=> .def_45 .def_43))) (let ((.def_47 (and act_make_treatment@1 true .def_30 .def_24))) (let ((.def_48 (and act_unload_at_depot@1 true .def_40 .def_1))) (let ((.def_49 (and .def_48 .def_47))) (let ((.def_50 (not .def_49))) (let ((.def_51 (and act_load_at_depot@1 true .def_6 .def_8))) (let ((.def_52 (and .def_51 .def_47))) (let ((.def_53 (not .def_52))) (let ((.def_54 (and .def_51 .def_48))) (let ((.def_55 (not .def_54))) (let ((.def_56 (and act_load@1 true .def_33 .def_34))) (let ((.def_57 (and .def_56 .def_47))) (let ((.def_58 (not .def_57))) (let ((.def_59 (and .def_56 .def_48))) (let ((.def_60 (not .def_59))) (let ((.def_61 (and .def_56 .def_51))) (let ((.def_62 (not .def_61))) (let ((.def_63 (or .def_56 .def_51 .def_48 .def_47))) (let ((.def_64 (= fluent_pallet_at_plt0_p3@0 fluent_pallet_at_plt0_p3@1))) (let ((.def_65 (not .def_64))) (let ((.def_66 (=> .def_65 .def_63))) (let ((.def_67 (and act_make_treatment@1 true .def_30 .def_25))) (let ((.def_68 (and act_unload_at_depot@1 true .def_40 .def_2))) (let ((.def_69 (and .def_68 .def_67))) (let ((.def_70 (not .def_69))) (let ((.def_71 (and act_load_at_depot@1 true .def_6 .def_9))) (let ((.def_72 (and .def_71 .def_67))) (let ((.def_73 (not .def_72))) (let ((.def_74 (and .def_71 .def_68))) (let ((.def_75 (not .def_74))) (let ((.def_76 (and act_load@1 true .def_33 .def_35))) (let ((.def_77 (and .def_76 .def_67))) (let ((.def_78 (not .def_77))) (let ((.def_79 (and .def_76 .def_68))) (let ((.def_80 (not .def_79))) (let ((.def_81 (and .def_76 .def_71))) (let ((.def_82 (not .def_81))) (let ((.def_83 (or .def_76 .def_71 .def_68 .def_67))) (let ((.def_84 (= fluent_pallet_at_plt0_p2@0 fluent_pallet_at_plt0_p2@1))) (let ((.def_85 (not .def_84))) (let ((.def_86 (=> .def_85 .def_83))) (let ((.def_87 (and act_make_treatment@1 true .def_30 .def_26))) (let ((.def_88 (and act_unload_at_depot@1 true .def_40 .def_3))) (let ((.def_89 (and .def_88 .def_87))) (let ((.def_90 (not .def_89))) (let ((.def_91 (and act_load_at_depot@1 true .def_6 .def_10))) (let ((.def_92 (and .def_91 .def_87))) (let ((.def_93 (not .def_92))) (let ((.def_94 (and .def_91 .def_88))) (let ((.def_95 (not .def_94))) (let ((.def_96 (and act_load@1 true .def_33 .def_36))) (let ((.def_97 (and .def_96 .def_87))) (let ((.def_98 (not .def_97))) (let ((.def_99 (and .def_96 .def_88))) (let ((.def_100 (not .def_99))) (let ((.def_101 (and .def_96 .def_91))) (let ((.def_102 (not .def_101))) (let ((.def_103 (or .def_96 .def_91 .def_88 .def_87))) (let ((.def_104 (= fluent_pallet_at_plt0_p1@0 fluent_pallet_at_plt0_p1@1))) (let ((.def_105 (not .def_104))) (let ((.def_106 (=> .def_105 .def_103))) (let ((.def_107 (and act_make_treatment@1 true .def_30 .def_27))) (let ((.def_108 (and act_unload_at_depot@1 true .def_40 .def_4))) (let ((.def_109 (and .def_108 .def_107))) (let ((.def_110 (not .def_109))) (let ((.def_111 (and act_load_at_depot@1 true .def_6 .def_11))) (let ((.def_112 (and .def_111 .def_107))) (let ((.def_113 (not .def_112))) (let ((.def_114 (and .def_111 .def_108))) (let ((.def_115 (not .def_114))) (let ((.def_116 (and act_load@1 true .def_33 .def_37))) (let ((.def_117 (and .def_116 .def_107))) (let ((.def_118 (not .def_117))) (let ((.def_119 (and .def_116 .def_108))) (let ((.def_120 (not .def_119))) (let ((.def_121 (and .def_116 .def_111))) (let ((.def_122 (not .def_121))) (let ((.def_123 (or .def_116 .def_111 .def_108 .def_107))) (let ((.def_124 (= fluent_pallet_at_plt0_p0@0 fluent_pallet_at_plt0_p0@1))) (let ((.def_125 (not .def_124))) (let ((.def_126 (=> .def_125 .def_123))) (let ((.def_127 (and act_load@1 true .def_33 .def_39))) (let ((.def_128 (= fluent_treated_plt0_t0@0 fluent_treated_plt0_t0@1))) (let ((.def_129 (not .def_128))) (let ((.def_130 (=> .def_129 .def_127))) (let ((.def_131 (and act_make_treatment@1 true .def_24))) (let ((.def_132 (and act_load@1 true .def_34))) (let ((.def_133 (and .def_132 .def_131))) (let ((.def_134 (not .def_133))) (let ((.def_135 (or .def_132 .def_131))) (let ((.def_136 (= fluent_position_free_p3@0 fluent_position_free_p3@1))) (let ((.def_137 (not .def_136))) (let ((.def_138 (=> .def_137 .def_135))) (let ((.def_139 (and act_make_treatment@1 true .def_25))) (let ((.def_140 (and act_load@1 true .def_35))) (let ((.def_141 (and .def_140 .def_139))) (let ((.def_142 (not .def_141))) (let ((.def_143 (or .def_140 .def_139))) (let ((.def_144 (= fluent_position_free_p2@0 fluent_position_free_p2@1))) (let ((.def_145 (not .def_144))) (let ((.def_146 (=> .def_145 .def_143))) (let ((.def_147 (and act_make_treatment@1 true .def_26))) (let ((.def_148 (and act_load@1 true .def_36))) (let ((.def_149 (and .def_148 .def_147))) (let ((.def_150 (not .def_149))) (let ((.def_151 (or .def_148 .def_147))) (let ((.def_152 (= fluent_position_free_p1@0 fluent_position_free_p1@1))) (let ((.def_153 (not .def_152))) (let ((.def_154 (=> .def_153 .def_151))) (let ((.def_155 (and act_make_treatment@1 true .def_27))) (let ((.def_156 (and act_load@1 true .def_37))) (let ((.def_157 (and .def_156 .def_155))) (let ((.def_158 (not .def_157))) (let ((.def_159 (or .def_156 .def_155))) (let ((.def_160 (= fluent_position_free_p0@0 fluent_position_free_p0@1))) (let ((.def_161 (not .def_160))) (let ((.def_162 (=> .def_161 .def_159))) (let ((.def_163 (+ t@1 10.0))) (let ((.def_164 (= t@1 .def_163))) (let ((.def_165 (and act_make_treatment@1 true .def_164 .def_30 .def_24 .def_31))) (let ((.def_166 (and act_load@1 true .def_33 .def_34 .def_39))) (let ((.def_167 (and .def_166 .def_165))) (let ((.def_168 (not .def_167))) (let ((.def_169 (or .def_166 .def_165))) (let ((.def_170 (= fluent_ready_plt0_p3_t0@0 fluent_ready_plt0_p3_t0@1))) (let ((.def_171 (not .def_170))) (let ((.def_172 (=> .def_171 .def_169))) (let ((.def_173 (and act_make_treatment@1 true .def_164 .def_30 .def_25 .def_31))) (let ((.def_174 (and act_load@1 true .def_33 .def_35 .def_39))) (let ((.def_175 (and .def_174 .def_173))) (let ((.def_176 (not .def_175))) (let ((.def_177 (or .def_174 .def_173))) (let ((.def_178 (= fluent_ready_plt0_p2_t0@0 fluent_ready_plt0_p2_t0@1))) (let ((.def_179 (not .def_178))) (let ((.def_180 (=> .def_179 .def_177))) (let ((.def_181 (and act_make_treatment@1 true .def_164 .def_30 .def_26 .def_31))) (let ((.def_182 (and act_load@1 true .def_33 .def_36 .def_39))) (let ((.def_183 (and .def_182 .def_181))) (let ((.def_184 (not .def_183))) (let ((.def_185 (or .def_182 .def_181))) (let ((.def_186 (= fluent_ready_plt0_p1_t0@0 fluent_ready_plt0_p1_t0@1))) (let ((.def_187 (not .def_186))) (let ((.def_188 (=> .def_187 .def_185))) (let ((.def_189 (and act_make_treatment@1 true .def_164 .def_30 .def_27 .def_31))) (let ((.def_190 (and act_load@1 true .def_33 .def_37 .def_39))) (let ((.def_191 (and .def_190 .def_189))) (let ((.def_192 (not .def_191))) (let ((.def_193 (or .def_190 .def_189))) (let ((.def_194 (= fluent_ready_plt0_p0_t0@0 fluent_ready_plt0_p0_t0@1))) (let ((.def_195 (not .def_194))) (let ((.def_196 (=> .def_195 .def_193))) (let ((.def_197 (and act_make_treatment@1 true .def_29 .def_30))) (let ((.def_198 (and act_unload_at_depot@1 true .def_0 .def_40))) (let ((.def_199 (and .def_198 .def_197))) (let ((.def_200 (not .def_199))) (let ((.def_201 (and act_load_at_depot@1 true .def_7 .def_6))) (let ((.def_202 (and .def_201 .def_197))) (let ((.def_203 (not .def_202))) (let ((.def_204 (and .def_201 .def_198))) (let ((.def_205 (not .def_204))) (let ((.def_206 (and act_load@1 true .def_32 .def_33))) (let ((.def_207 (and .def_206 .def_197))) (let ((.def_208 (not .def_207))) (let ((.def_209 (and .def_206 .def_198))) (let ((.def_210 (not .def_209))) (let ((.def_211 (and .def_206 .def_201))) (let ((.def_212 (not .def_211))) (let ((.def_213 (or .def_206 .def_201 .def_198 .def_197))) (let ((.def_214 (= fluent_robot_has_r0_plt0@0 fluent_robot_has_r0_plt0@1))) (let ((.def_215 (not .def_214))) (let ((.def_216 (=> .def_215 .def_213))) (let ((.def_217 (and act_make_treatment@1 true .def_29))) (let ((.def_218 (and act_unload_at_depot@1 true .def_0))) (let ((.def_219 (and .def_218 .def_217))) (let ((.def_220 (not .def_219))) (let ((.def_221 (and act_load_at_depot@1 true .def_7))) (let ((.def_222 (and .def_221 .def_217))) (let ((.def_223 (not .def_222))) (let ((.def_224 (and .def_221 .def_218))) (let ((.def_225 (not .def_224))) (let ((.def_226 (and act_load@1 true .def_32))) (let ((.def_227 (and .def_226 .def_217))) (let ((.def_228 (not .def_227))) (let ((.def_229 (and .def_226 .def_218))) (let ((.def_230 (not .def_229))) (let ((.def_231 (and .def_226 .def_221))) (let ((.def_232 (not .def_231))) (let ((.def_233 (or .def_226 .def_221 .def_218 .def_217))) (let ((.def_234 (= fluent_robot_free_r0@0 fluent_robot_free_r0@1))) (let ((.def_235 (not .def_234))) (let ((.def_236 (=> .def_235 .def_233))) (let ((.def_237 (and act_move@1 true .def_13 .def_14))) (let ((.def_238 (and act_move@1 true .def_13 .def_19))) (let ((.def_239 (and .def_238 .def_237))) (let ((.def_240 (not .def_239))) (let ((.def_241 (or .def_238 .def_237))) (let ((.def_242 (= fluent_robot_at_r0_p3@0 fluent_robot_at_r0_p3@1))) (let ((.def_243 (not .def_242))) (let ((.def_244 (=> .def_243 .def_241))) (let ((.def_245 (and act_move@1 true .def_13 .def_15))) (let ((.def_246 (and act_move@1 true .def_13 .def_20))) (let ((.def_247 (and .def_246 .def_245))) (let ((.def_248 (not .def_247))) (let ((.def_249 (or .def_246 .def_245))) (let ((.def_250 (= fluent_robot_at_r0_p2@0 fluent_robot_at_r0_p2@1))) (let ((.def_251 (not .def_250))) (let ((.def_252 (=> .def_251 .def_249))) (let ((.def_253 (and act_move@1 true .def_13 .def_16))) (let ((.def_254 (and act_move@1 true .def_13 .def_21))) (let ((.def_255 (and .def_254 .def_253))) (let ((.def_256 (not .def_255))) (let ((.def_257 (or .def_254 .def_253))) (let ((.def_258 (= fluent_robot_at_r0_p1@0 fluent_robot_at_r0_p1@1))) (let ((.def_259 (not .def_258))) (let ((.def_260 (=> .def_259 .def_257))) (let ((.def_261 (and act_move@1 true .def_13 .def_17))) (let ((.def_262 (and act_move@1 true .def_13 .def_22))) (let ((.def_263 (and .def_262 .def_261))) (let ((.def_264 (not .def_263))) (let ((.def_265 (or .def_262 .def_261))) (let ((.def_266 (= fluent_robot_at_r0_p0@0 fluent_robot_at_r0_p0@1))) (let ((.def_267 (not .def_266))) (let ((.def_268 (=> .def_267 .def_265))) (let ((.def_269 (and .def_268 .def_264 .def_260 .def_256 .def_252 .def_248 .def_244 .def_240 .def_236 .def_232 .def_230 .def_228 .def_225 .def_223 .def_220 .def_216 .def_212 .def_210 .def_208 .def_205 .def_203 .def_200 .def_196 .def_192 .def_188 .def_184 .def_180 .def_176 .def_172 .def_168 .def_162 .def_158 .def_154 .def_150 .def_146 .def_142 .def_138 .def_134 .def_130 .def_126 .def_122 .def_120 .def_118 .def_115 .def_113 .def_110 .def_106 .def_102 .def_100 .def_98 .def_95 .def_93 .def_90 .def_86 .def_82 .def_80 .def_78 .def_75 .def_73 .def_70 .def_66 .def_62 .def_60 .def_58 .def_55 .def_53 .def_50 .def_46))) (let ((.def_270 (= t@1 t@1))) (let ((.def_271 (and act_make_treatment@1 act_move@1 .def_270))) (let ((.def_272 (not .def_271))) (let ((.def_273 (and act_unload_at_depot@1 act_move@1 .def_270))) (let ((.def_274 (not .def_273))) (let ((.def_275 (and act_load@1 act_move@1 .def_270))) (let ((.def_276 (not .def_275))) (let ((.def_277 (+ t@1 dur_make_treatment@1))) (let ((.def_278 (= t@1 .def_277))) (let ((.def_279 (and act_load@1 act_make_treatment@1 .def_278))) (let ((.def_280 (not .def_279))) (let ((.def_281 (and act_load@1 act_load_at_depot@1 .def_270))) (let ((.def_282 (not .def_281))) (let ((.def_283 (and act_unload_at_depot@1 act_load_at_depot@1 .def_270))) (let ((.def_284 (not .def_283))) (let ((.def_285 (and act_move@1 act_load_at_depot@1 .def_270))) (let ((.def_286 (not .def_285))) (let ((.def_287 (and act_unload_at_depot@1 act_make_treatment@1 .def_270))) (let ((.def_288 (not .def_287))) (let ((.def_289 (and act_load@1 act_make_treatment@1 .def_270))) (let ((.def_290 (not .def_289))) (let ((.def_291 (and act_load@1 act_unload_at_depot@1 .def_270))) (let ((.def_292 (not .def_291))) (let ((.def_293 (and act_make_treatment@1 act_load_at_depot@1 .def_270))) (let ((.def_294 (not .def_293))) (let ((.def_295 (and act_load@1 act_make_treatment@1 .def_164))) (let ((.def_296 (not .def_295))) (let ((.def_297 (and .def_296 .def_294 .def_292 .def_290 .def_288 .def_286 .def_284 .def_282 .def_280 .def_276 .def_274 .def_272))) (let ((.def_298 (<= 0.0 t@1))) (let ((.def_299 (and .def_30 .def_26 .def_31))) (let ((.def_300 (ite .def_299 fluent_ready_plt0_p1_t0@1 fluent_ready_plt0_p0_t0@1))) (let ((.def_301 (and .def_30 .def_25 .def_31))) (let ((.def_302 (ite .def_301 fluent_ready_plt0_p2_t0@1 .def_300))) (let ((.def_303 (and .def_30 .def_24 .def_31))) (let ((.def_304 (ite .def_303 fluent_ready_plt0_p3_t0@1 .def_302))) (let ((.def_305 (= .def_304 true))) (let ((.def_306 (=> true .def_305))) (let ((.def_307 (and .def_164 .def_306))) (let ((.def_308 (= fluent_robot_free_r0@1 true))) (let ((.def_309 (=> true .def_308))) (let ((.def_310 (and .def_30 .def_26))) (let ((.def_311 (ite .def_310 fluent_pallet_at_plt0_p1@1 fluent_pallet_at_plt0_p0@1))) (let ((.def_312 (and .def_30 .def_25))) (let ((.def_313 (ite .def_312 fluent_pallet_at_plt0_p2@1 .def_311))) (let ((.def_314 (and .def_30 .def_24))) (let ((.def_315 (ite .def_314 fluent_pallet_at_plt0_p3@1 .def_313))) (let ((.def_316 (= .def_315 true))) (let ((.def_317 (=> true .def_316))) (let ((.def_318 (= fluent_robot_has_r0_plt0@1 false))) (let ((.def_319 (=> true .def_318))) (let ((.def_320 (ite .def_26 fluent_position_free_p1@1 fluent_position_free_p0@1))) (let ((.def_321 (ite .def_25 fluent_position_free_p2@1 .def_320))) (let ((.def_322 (ite .def_24 fluent_position_free_p3@1 .def_321))) (let ((.def_323 (= .def_322 false))) (let ((.def_324 (=> true .def_323))) (let ((.def_325 (and .def_270 .def_324 .def_319 .def_317 .def_309))) (let ((.def_326 (ite .def_26 fluent_position_free_p1@0 fluent_position_free_p0@0))) (let ((.def_327 (ite .def_25 fluent_position_free_p2@0 .def_326))) (let ((.def_328 (ite .def_24 fluent_position_free_p3@0 .def_327))) (let ((.def_329 (and fluent_treated_plt0_t0@0 .def_328))) (let ((.def_330 (<= .def_277 t@1))) (let ((.def_331 (< (- 1.0) .def_277))) (let ((.def_332 (and .def_331 .def_330))) (let ((.def_333 (=> .def_332 .def_329))) (let ((.def_334 (not fluent_treated_plt0_t0@0))) (let ((.def_335 (and .def_29 .def_26))) (let ((.def_336 (ite .def_335 fluent_robot_at_r0_p1@0 fluent_robot_at_r0_p0@0))) (let ((.def_337 (and .def_29 .def_25))) (let ((.def_338 (ite .def_337 fluent_robot_at_r0_p2@0 .def_336))) (let ((.def_339 (and .def_29 .def_24))) (let ((.def_340 (ite .def_339 fluent_robot_at_r0_p3@0 .def_338))) (let ((.def_341 (and .def_26 .def_31))) (let ((.def_342 (ite .def_341 false true))) (let ((.def_343 (and .def_25 .def_31))) (let ((.def_344 (ite .def_343 false .def_342))) (let ((.def_345 (and .def_24 .def_31))) (let ((.def_346 (ite .def_345 false .def_344))) (let ((.def_347 (and .def_346 .def_328 .def_340 fluent_robot_has_r0_plt0@0 .def_334))) (let ((.def_348 (<= t@1 t@1))) (let ((.def_349 (< (- 1.0) t@1))) (let ((.def_350 (and .def_349 .def_348))) (let ((.def_351 (=> .def_350 .def_347))) (let ((.def_352 (<= dur_make_treatment@1 20.0))) (let ((.def_353 (<= 20.0 dur_make_treatment@1))) (let ((.def_354 (and .def_353 .def_352))) (let ((.def_355 (and .def_354 .def_330 .def_351 .def_333 .def_325 .def_307))) (let ((.def_356 (=> act_make_treatment@1 .def_355))) (let ((.def_357 (and .def_40 .def_3))) (let ((.def_358 (ite .def_357 fluent_pallet_at_plt0_p1@1 fluent_pallet_at_plt0_p0@1))) (let ((.def_359 (and .def_40 .def_2))) (let ((.def_360 (ite .def_359 fluent_pallet_at_plt0_p2@1 .def_358))) (let ((.def_361 (and .def_40 .def_1))) (let ((.def_362 (ite .def_361 fluent_pallet_at_plt0_p3@1 .def_360))) (let ((.def_363 (= .def_362 true))) (let ((.def_364 (=> true .def_363))) (let ((.def_365 (and .def_0 .def_3))) (let ((.def_366 (ite .def_365 fluent_robot_at_r0_p1@0 fluent_robot_at_r0_p0@0))) (let ((.def_367 (and .def_0 .def_2))) (let ((.def_368 (ite .def_367 fluent_robot_at_r0_p2@0 .def_366))) (let ((.def_369 (and .def_0 .def_1))) (let ((.def_370 (ite .def_369 fluent_robot_at_r0_p3@0 .def_368))) (let ((.def_371 (ite .def_3 false false))) (let ((.def_372 (ite .def_2 false .def_371))) (let ((.def_373 (ite .def_1 true .def_372))) (let ((.def_374 (and .def_373 .def_370 fluent_robot_has_r0_plt0@0 .def_364 .def_309 .def_319))) (let ((.def_375 (=> act_unload_at_depot@1 .def_374))) (let ((.def_376 (and .def_6 .def_10))) (let ((.def_377 (ite .def_376 fluent_pallet_at_plt0_p1@1 fluent_pallet_at_plt0_p0@1))) (let ((.def_378 (and .def_6 .def_9))) (let ((.def_379 (ite .def_378 fluent_pallet_at_plt0_p2@1 .def_377))) (let ((.def_380 (and .def_6 .def_8))) (let ((.def_381 (ite .def_380 fluent_pallet_at_plt0_p3@1 .def_379))) (let ((.def_382 (= .def_381 false))) (let ((.def_383 (=> true .def_382))) (let ((.def_384 (= fluent_robot_has_r0_plt0@1 true))) (let ((.def_385 (=> true .def_384))) (let ((.def_386 (= fluent_robot_free_r0@1 false))) (let ((.def_387 (=> true .def_386))) (let ((.def_388 (ite .def_376 fluent_pallet_at_plt0_p1@0 fluent_pallet_at_plt0_p0@0))) (let ((.def_389 (ite .def_378 fluent_pallet_at_plt0_p2@0 .def_388))) (let ((.def_390 (ite .def_380 fluent_pallet_at_plt0_p3@0 .def_389))) (let ((.def_391 (and .def_7 .def_10))) (let ((.def_392 (ite .def_391 fluent_robot_at_r0_p1@0 fluent_robot_at_r0_p0@0))) (let ((.def_393 (and .def_7 .def_9))) (let ((.def_394 (ite .def_393 fluent_robot_at_r0_p2@0 .def_392))) (let ((.def_395 (and .def_7 .def_8))) (let ((.def_396 (ite .def_395 fluent_robot_at_r0_p3@0 .def_394))) (let ((.def_397 (ite .def_10 false false))) (let ((.def_398 (ite .def_9 false .def_397))) (let ((.def_399 (ite .def_8 true .def_398))) (let ((.def_400 (and .def_399 .def_396 fluent_robot_free_r0@0 .def_390 .def_387 .def_385 .def_383))) (let ((.def_401 (=> act_load_at_depot@1 .def_400))) (let ((.def_402 (ite .def_36 fluent_position_free_p1@1 fluent_position_free_p0@1))) (let ((.def_403 (ite .def_35 fluent_position_free_p2@1 .def_402))) (let ((.def_404 (ite .def_34 fluent_position_free_p3@1 .def_403))) (let ((.def_405 (= .def_404 true))) (let ((.def_406 (=> true .def_405))) (let ((.def_407 (= fluent_treated_plt0_t0@1 true))) (let ((.def_408 (=> true .def_407))) (let ((.def_409 (and .def_33 .def_36))) (let ((.def_410 (ite .def_409 fluent_pallet_at_plt0_p1@1 fluent_pallet_at_plt0_p0@1))) (let ((.def_411 (and .def_33 .def_35))) (let ((.def_412 (ite .def_411 fluent_pallet_at_plt0_p2@1 .def_410))) (let ((.def_413 (and .def_33 .def_34))) (let ((.def_414 (ite .def_413 fluent_pallet_at_plt0_p3@1 .def_412))) (let ((.def_415 (= .def_414 false))) (let ((.def_416 (=> true .def_415))) (let ((.def_417 (and .def_33 .def_36 .def_39))) (let ((.def_418 (ite .def_417 fluent_ready_plt0_p1_t0@1 fluent_ready_plt0_p0_t0@1))) (let ((.def_419 (and .def_33 .def_35 .def_39))) (let ((.def_420 (ite .def_419 fluent_ready_plt0_p2_t0@1 .def_418))) (let ((.def_421 (and .def_33 .def_34 .def_39))) (let ((.def_422 (ite .def_421 fluent_ready_plt0_p3_t0@1 .def_420))) (let ((.def_423 (= .def_422 false))) (let ((.def_424 (=> true .def_423))) (let ((.def_425 (ite .def_409 fluent_pallet_at_plt0_p1@0 fluent_pallet_at_plt0_p0@0))) (let ((.def_426 (ite .def_411 fluent_pallet_at_plt0_p2@0 .def_425))) (let ((.def_427 (ite .def_413 fluent_pallet_at_plt0_p3@0 .def_426))) (let ((.def_428 (and .def_32 .def_36))) (let ((.def_429 (ite .def_428 fluent_robot_at_r0_p1@0 fluent_robot_at_r0_p0@0))) (let ((.def_430 (and .def_32 .def_35))) (let ((.def_431 (ite .def_430 fluent_robot_at_r0_p2@0 .def_429))) (let ((.def_432 (and .def_32 .def_34))) (let ((.def_433 (ite .def_432 fluent_robot_at_r0_p3@0 .def_431))) (let ((.def_434 (ite .def_417 fluent_ready_plt0_p1_t0@0 fluent_ready_plt0_p0_t0@0))) (let ((.def_435 (ite .def_419 fluent_ready_plt0_p2_t0@0 .def_434))) (let ((.def_436 (ite .def_421 fluent_ready_plt0_p3_t0@0 .def_435))) (let ((.def_437 (and .def_436 .def_433 fluent_robot_free_r0@0 .def_427 .def_387 .def_424 .def_416 .def_385 .def_408 .def_406))) (let ((.def_438 (=> act_load@1 .def_437))) (let ((.def_439 (and .def_16 .def_22))) (let ((.def_440 (ite .def_439 1.0 0.0))) (let ((.def_441 (and .def_15 .def_22))) (let ((.def_442 (ite .def_441 2.0 .def_440))) (let ((.def_443 (and .def_14 .def_22))) (let ((.def_444 (ite .def_443 3.0 .def_442))) (let ((.def_445 (and .def_17 .def_21))) (let ((.def_446 (ite .def_445 1.0 .def_444))) (let ((.def_447 (and .def_16 .def_21))) (let ((.def_448 (ite .def_447 0.0 .def_446))) (let ((.def_449 (and .def_15 .def_21))) (let ((.def_450 (ite .def_449 1.0 .def_448))) (let ((.def_451 (and .def_14 .def_21))) (let ((.def_452 (ite .def_451 2.0 .def_450))) (let ((.def_453 (and .def_17 .def_20))) (let ((.def_454 (ite .def_453 2.0 .def_452))) (let ((.def_455 (and .def_16 .def_20))) (let ((.def_456 (ite .def_455 1.0 .def_454))) (let ((.def_457 (and .def_15 .def_20))) (let ((.def_458 (ite .def_457 0.0 .def_456))) (let ((.def_459 (and .def_14 .def_20))) (let ((.def_460 (ite .def_459 1.0 .def_458))) (let ((.def_461 (and .def_17 .def_19))) (let ((.def_462 (ite .def_461 3.0 .def_460))) (let ((.def_463 (and .def_16 .def_19))) (let ((.def_464 (ite .def_463 2.0 .def_462))) (let ((.def_465 (and .def_15 .def_19))) (let ((.def_466 (ite .def_465 1.0 .def_464))) (let ((.def_467 (and .def_14 .def_19))) (let ((.def_468 (ite .def_467 0.0 .def_466))) (let ((.def_469 (- fluent_battery_level_r0@0 .def_468))) (let ((.def_470 (= fluent_battery_level_r0@1 .def_469))) (let ((.def_471 (=> true .def_470))) (let ((.def_472 (and .def_13 .def_16))) (let ((.def_473 (ite .def_472 fluent_robot_at_r0_p1@1 fluent_robot_at_r0_p0@1))) (let ((.def_474 (and .def_13 .def_15))) (let ((.def_475 (ite .def_474 fluent_robot_at_r0_p2@1 .def_473))) (let ((.def_476 (and .def_13 .def_14))) (let ((.def_477 (ite .def_476 fluent_robot_at_r0_p3@1 .def_475))) (let ((.def_478 (= .def_477 false))) (let ((.def_479 (=> true .def_478))) (let ((.def_480 (and .def_13 .def_21))) (let ((.def_481 (ite .def_480 fluent_robot_at_r0_p1@1 fluent_robot_at_r0_p0@1))) (let ((.def_482 (and .def_13 .def_20))) (let ((.def_483 (ite .def_482 fluent_robot_at_r0_p2@1 .def_481))) (let ((.def_484 (and .def_13 .def_19))) (let ((.def_485 (ite .def_484 fluent_robot_at_r0_p3@1 .def_483))) (let ((.def_486 (= .def_485 true))) (let ((.def_487 (=> true .def_486))) (let ((.def_488 (<= .def_468 fluent_battery_level_r0@0))) (let ((.def_489 (ite .def_472 fluent_robot_at_r0_p1@0 fluent_robot_at_r0_p0@0))) (let ((.def_490 (ite .def_474 fluent_robot_at_r0_p2@0 .def_489))) (let ((.def_491 (ite .def_476 fluent_robot_at_r0_p3@0 .def_490))) (let ((.def_492 (= parameter_move_frompos@1 parameter_move_topos@1))) (let ((.def_493 (not .def_492))) (let ((.def_494 (and .def_493 .def_491 .def_488 .def_487 .def_479 .def_471))) (let ((.def_495 (=> act_move@1 .def_494))) (let ((.def_496 (<= fluent_battery_level_r0@0 100.0))) (let ((.def_497 (<= 0.0 fluent_battery_level_r0@0))) (let ((.def_498 (= false false))) (let ((.def_499 (= fluent_pallet_at_plt0_p2@0 false))) (let ((.def_500 (= fluent_pallet_at_plt0_p1@0 false))) (let ((.def_501 (= fluent_pallet_at_plt0_p0@0 false))) (let ((.def_502 (= fluent_treated_plt0_t0@0 false))) (let ((.def_503 (= fluent_ready_plt0_p3_t0@0 false))) (let ((.def_504 (= fluent_ready_plt0_p2_t0@0 false))) (let ((.def_505 (= fluent_ready_plt0_p1_t0@0 false))) (let ((.def_506 (= fluent_ready_plt0_p0_t0@0 false))) (let ((.def_507 (= fluent_robot_has_r0_plt0@0 false))) (let ((.def_508 (= fluent_robot_at_r0_p2@0 false))) (let ((.def_509 (= fluent_robot_at_r0_p1@0 false))) (let ((.def_510 (= fluent_robot_at_r0_p0@0 false))) (let ((.def_511 (= true true))) (let ((.def_512 (= fluent_position_free_p3@0 true))) (let ((.def_513 (= fluent_position_free_p2@0 true))) (let ((.def_514 (= fluent_position_free_p1@0 true))) (let ((.def_515 (= fluent_position_free_p0@0 true))) (let ((.def_516 (= 0.0 0.0))) (let ((.def_517 (= 1.0 1.0))) (let ((.def_518 (= 2.0 2.0))) (let ((.def_519 (= 3.0 3.0))) (let ((.def_520 (= fluent_battery_level_r0@0 8.0))) (let ((.def_521 (= fluent_pallet_at_plt0_p3@0 true))) (let ((.def_522 (= fluent_robot_free_r0@0 true))) (let ((.def_523 (= fluent_robot_at_r0_p3@0 true))) (let ((.def_524 (and .def_523 .def_522 .def_521 .def_520 .def_516 .def_517 .def_517 .def_518 .def_518 .def_519 .def_519 .def_516 .def_517 .def_517 .def_518 .def_518 .def_516 .def_517 .def_517 .def_516 .def_511 .def_515 .def_514 .def_513 .def_512 .def_511 .def_510 .def_509 .def_508 .def_507 .def_506 .def_505 .def_504 .def_503 .def_502 .def_501 .def_500 .def_499 .def_498 .def_498 .def_498 .def_498 .def_498 .def_498 .def_497 .def_496))) (let ((.def_525 (and .def_524 .def_495 .def_438 .def_401 .def_375 .def_356 .def_298 .def_297 true .def_269 .def_42 .def_41 .def_40 .def_39 .def_38 .def_33 .def_32 .def_31 .def_30 .def_29 .def_28 .def_23 .def_18 .def_13 .def_12 .def_7 .def_6 .def_5 .def_0 true))) .def_525)))))))))))))))))))))))))))))))))))))))))))))))))))))))))))))))))))))))))))))))))))))))))))))))))))))))))))))))))))))))))))))))))))))))))))))))))))))))))))))))))))))))))))))))))))))))))))))))))))))))))))))))))))))))))))))))))))))))))))))))))))))))))))))))))))))))))))))))))))))))))))))))))))))))))))))))))))))))))))))))))))))))))))))))))))))))))))))))))))))))))))))))))))))))))))))))))))))))))))))))))))))))))))))))))))))))))))))))))))))))))))))))))))))))))))))))))))))))))))))))))))))))))))))))))))))))))))))))))))))))))))))))
(check-sat)

--------------------------------------------------------------------------------
